15881.58,38.3,47.51
16047.95,37.9,47.02
15512.1,39.21,48.64
14288.41,42.57,52.81
13182.85,46.14,57.23
16725.13,36.37,45.11
16109.79,37.76,46.84
14494.98,41.96,52.05
15494.28,39.26,48.7
14770.73,41.18,51.08
15180.67,40.07,49.7
14364.26,42.34,52.53
15473.29,39.31,48.76
13954.56,43.59,54.07
14531.87,41.86,51.92
14805.32,41.08,50.96
14591.89,41.68,51.71
16270.54,37.38,46.37
15579.13,39.04,48.43
14378.25,42.3,52.48
